# Objective value = 1.2825509999999993e+04
I_0_0 2249
I_0_1 3.0709999999999968e+03
I_0_2 2666
I_0_3 2.9049999999999986e+03
I_0_4 2.4999999999999854e+03
I_0_5 2.6009999999999973e+03
I_0_6 3.5079999999999973e+03
I_1_0 32
I_1_1 0
I_1_2 32
I_1_3 0
I_1_4 32
I_1_5 32
I_1_6 0
I_2_0 198
I_2_1 99
I_2_2 198
I_2_3 99
I_2_4 198
I_2_5 99
I_2_6 0
I_3_0 102
I_3_1 51
I_3_2 102
I_3_3 51
I_3_4 102
I_3_5 51
I_3_6 0
I_4_0 88
I_4_1 0
I_4_2 88
I_4_3 0
I_4_4 88
I_4_5 88
I_4_6 0
I_5_0 196
I_5_1 9.8000000000003340e+01
I_5_2 3.3390372127213192e-12
I_5_3 1.9599999999999335e+02
I_5_4 1.9599999999999997e+02
I_5_5 98
I_5_6 0
I_6_0 20
I_6_1 10
I_6_2 20
I_6_3 10
I_6_4 0
I_6_5 20
I_6_6 10
I_7_0 85
I_7_1 85
I_7_2 0
I_7_3 8.4999999999999986e+01
I_7_4 0
I_7_5 8.5000000000000014e+01
I_7_6 0
I_8_0 79
I_8_1 0
I_8_2 79
I_8_3 0
I_8_4 7.9000000000006452e+01
I_8_5 7.9000000000000014e+01
I_8_6 0
I_9_0 22
I_9_1 0
I_9_2 22
I_9_3 0
I_9_4 22
I_9_5 22
I_9_6 0
I_10_0 72
I_10_1 36
I_10_2 7.1999999999999972e+01
I_10_3 3.5999999999999972e+01
I_10_4 72
I_10_5 36
I_10_6 0
I_11_0 136
I_11_1 68
I_11_2 0
I_11_3 1.3599999999999997e+02
I_11_4 136
I_11_5 68
I_11_6 0
I_12_0 46
I_12_1 0
I_12_2 46
I_12_3 0
I_12_4 4.6000000000000007e+01
I_12_5 46
I_12_6 0
I_13_0 55
I_13_1 0
I_13_2 55
I_13_3 0
I_13_4 55
I_13_5 55
I_13_6 1.1368683772161603e-13
I_14_0 65
I_14_1 0
I_14_2 6.4999999999994415e+01
I_14_3 5.5936620312702804e-12
I_14_4 65.0000000000056
I_14_5 65
I_14_6 0
I_15_0 146
I_15_1 73
I_15_2 146
I_15_3 7.2999999999999986e+01
I_15_4 0
I_15_5 146
I_15_6 73
q_1_0_0 0
q_1_0_1 64
q_1_0_2 0
q_1_0_3 0
q_1_0_4 32
q_1_0_5 0
q_1_1_0 0
q_1_1_1 0
q_1_1_2 0
q_1_1_3 64
q_1_1_4 0
q_1_1_5 0
q_2_0_0 0
q_2_0_1 0
q_2_0_2 0
q_2_0_3 198
q_2_0_4 0
q_2_0_5 0
q_2_1_0 0
q_2_1_1 198
q_2_1_2 0
q_2_1_3 0
q_2_1_4 0
q_2_1_5 0
q_3_0_0 0
q_3_0_1 0
q_3_0_2 0
q_3_0_3 102
q_3_0_4 0
q_3_0_5 0
q_3_1_0 0
q_3_1_1 102
q_3_1_2 0
q_3_1_3 0
q_3_1_4 0
q_3_1_5 0
q_4_0_0 0
q_4_0_1 0
q_4_0_2 0
q_4_0_3 0
q_4_0_4 88
q_4_0_5 0
q_4_1_0 0
q_4_1_1 176
q_4_1_2 0
q_4_1_3 176
q_4_1_4 0
q_4_1_5 0
q_5_0_0 3.3390372127213192e-12
q_5_0_1 0
q_5_0_2 2.9400000000004064e+02
q_5_0_3 9.8000000000006622e+01
q_5_0_4 0
q_5_0_5 0
q_5_1_0 0
q_5_1_1 0
q_5_1_2 -5.0630053217429693e-11
q_5_1_3 0
q_5_1_4 0
q_5_1_5 0
q_6_0_0 0
q_6_0_1 20
q_6_0_2 0
q_6_0_3 0
q_6_0_4 30
q_6_0_5 0
q_6_1_0 0
q_6_1_1 0
q_6_1_2 0
q_6_1_3 0
q_6_1_4 0
q_6_1_5 0
q_7_0_0 85
q_7_0_1 0
q_7_0_2 1.6999999999999113e+02
q_7_0_3 0
q_7_0_4 0
q_7_0_5 0
q_7_1_0 0
q_7_1_1 0
q_7_1_2 8.8532668503289829e-12
q_7_1_3 0
q_7_1_4 170
q_7_1_5 0
q_8_0_0 0
q_8_0_1 0
q_8_0_2 3.2102917312903792e-12
q_8_0_3 1.5800000000000645e+02
q_8_0_4 7.8999999999996774e+01
q_8_0_5 0
q_8_1_0 0
q_8_1_1 158
q_8_1_2 -3.2102917312903792e-12
q_8_1_3 0
q_8_1_4 -3.2208359145985991e-12
q_8_1_5 0
q_9_0_0 0
q_9_0_1 44
q_9_0_2 0
q_9_0_3 44
q_9_0_4 22
q_9_0_5 0
q_9_1_0 0
q_9_1_1 0
q_9_1_2 0
q_9_1_3 0
q_9_1_4 0
q_9_1_5 0
q_10_0_0 0
q_10_0_1 7.1999999999999972e+01
q_10_0_2 0
q_10_0_3 0
q_10_0_4 0
q_10_0_5 0
q_10_1_0 0
q_10_1_1 0
q_10_1_2 0
q_10_1_3 7.2000000000000028e+01
q_10_1_4 0
q_10_1_5 0
q_11_0_0 0
q_11_0_1 0
q_11_0_2 2.0400000000003510e+02
q_11_0_3 6.8000000000000028e+01
q_11_0_4 0
q_11_0_5 0
q_11_1_0 0
q_11_1_1 0
q_11_1_2 -3.5131057334543048e-11
q_11_1_3 0
q_11_1_4 0
q_11_1_5 0
q_12_0_0 0
q_12_0_1 92
q_12_0_2 0
q_12_0_3 0
q_12_0_4 4.5999999999999993e+01
q_12_0_5 0
q_12_1_0 0
q_12_1_1 0
q_12_1_2 0
q_12_1_3 92
q_12_1_4 0
q_12_1_5 0
q_13_0_0 0
q_13_0_1 110
q_13_0_2 0
q_13_0_3 0
q_13_0_4 55
q_13_0_5 0
q_13_1_0 0
q_13_1_1 0
q_13_1_2 0
q_13_1_3 110
q_13_1_4 0
q_13_1_5 0
q_14_0_0 0
q_14_0_1 1.2999999999999440e+02
q_14_0_2 1.1187324062540561e-11
q_14_0_3 0
q_14_0_4 64.9999999999944
q_14_0_5 0
q_14_1_0 0
q_14_1_1 0
q_14_1_2 0
q_14_1_3 130
q_14_1_4 0
q_14_1_5 0
q_15_0_0 0
q_15_0_1 146
q_15_0_2 0
q_15_0_3 0
q_15_0_4 219
q_15_0_5 0
q_15_1_0 0
q_15_1_1 0
q_15_1_2 0
q_15_1_3 0
q_15_1_4 0
q_15_1_5 0
y_0_0_0 1
y_0_0_1 1
y_0_0_2 1
y_0_0_3 1
y_0_0_4 1
y_0_0_5 0
y_0_1_0 0
y_0_1_1 1
y_0_1_2 5.2078040296052837e-14
y_0_1_3 1
y_0_1_4 1
y_0_1_5 0
y_1_0_0 0
y_1_0_1 1
y_1_0_2 0
y_1_0_3 0
y_1_0_4 1
y_1_0_5 0
y_1_1_0 0
y_1_1_1 0
y_1_1_2 0
y_1_1_3 1
y_1_1_4 0
y_1_1_5 0
y_2_0_0 0
y_2_0_1 0
y_2_0_2 0
y_2_0_3 1
y_2_0_4 0
y_2_0_5 0
y_2_1_0 0
y_2_1_1 1
y_2_1_2 0
y_2_1_3 0
y_2_1_4 0
y_2_1_5 0
y_3_0_0 0
y_3_0_1 0
y_3_0_2 0
y_3_0_3 1
y_3_0_4 0
y_3_0_5 0
y_3_1_0 0
y_3_1_1 1
y_3_1_2 0
y_3_1_3 0
y_3_1_4 0
y_3_1_5 0
y_4_0_0 0
y_4_0_1 0
y_4_0_2 0
y_4_0_3 0
y_4_0_4 1
y_4_0_5 0
y_4_1_0 0
y_4_1_1 1
y_4_1_2 0
y_4_1_3 1
y_4_1_4 0
y_4_1_5 0
y_5_0_0 3.4071808293074684e-14
y_5_0_1 0
y_5_0_2 1.0000000000001383e+00
y_5_0_3 1
y_5_0_4 0
y_5_0_5 0
y_5_1_0 0
y_5_1_1 0
y_5_1_2 -1.7221106536540712e-13
y_5_1_3 0
y_5_1_4 0
y_5_1_5 0
y_6_0_0 0
y_6_0_1 1
y_6_0_2 0
y_6_0_3 0
y_6_0_4 1
y_6_0_5 0
y_6_1_0 0
y_6_1_1 0
y_6_1_2 0
y_6_1_3 0
y_6_1_4 0
y_6_1_5 0
y_7_0_0 1
y_7_0_1 0
y_7_0_2 9.9999999999994782e-01
y_7_0_3 0
y_7_0_4 0
y_7_0_5 0
y_7_1_0 0
y_7_1_1 0
y_7_1_2 5.2078040296052843e-14
y_7_1_3 0
y_7_1_4 1
y_7_1_5 0
y_8_0_0 0
y_8_0_1 0
y_8_0_2 0
y_8_0_3 1.0000000000000409e+00
y_8_0_4 1
y_8_0_5 0
y_8_1_0 0
y_8_1_1 1
y_8_1_2 0
y_8_1_3 0
y_8_1_4 0
y_8_1_5 0
y_9_0_0 0
y_9_0_1 1
y_9_0_2 0
y_9_0_3 1
y_9_0_4 1
y_9_0_5 0
y_9_1_0 0
y_9_1_1 0
y_9_1_2 0
y_9_1_3 0
y_9_1_4 0
y_9_1_5 0
y_10_0_0 0
y_10_0_1 9.9999999999999956e-01
y_10_0_2 0
y_10_0_3 0
y_10_0_4 0
y_10_0_5 0
y_10_1_0 0
y_10_1_1 0
y_10_1_2 0
y_10_1_3 1
y_10_1_4 0
y_10_1_5 0
y_11_0_0 0
y_11_0_1 0
y_11_0_2 1.0000000000001721e+00
y_11_0_3 1
y_11_0_4 0
y_11_0_5 0
y_11_1_0 0
y_11_1_1 0
y_11_1_2 -1.7221106536540710e-13
y_11_1_3 0
y_11_1_4 0
y_11_1_5 0
y_12_0_0 0
y_12_0_1 1
y_12_0_2 0
y_12_0_3 0
y_12_0_4 1
y_12_0_5 0
y_12_1_0 0
y_12_1_1 0
y_12_1_2 0
y_12_1_3 1
y_12_1_4 0
y_12_1_5 0
y_13_0_0 0
y_13_0_1 1
y_13_0_2 0
y_13_0_3 0
y_13_0_4 1
y_13_0_5 0
y_13_1_0 0
y_13_1_1 0
y_13_1_2 0
y_13_1_3 1
y_13_1_4 0
y_13_1_5 0
y_14_0_0 0
y_14_0_1 1
y_14_0_2 8.60563389426197e-14
y_14_0_3 0
y_14_0_4 1
y_14_0_5 0
y_14_1_0 0
y_14_1_1 0
y_14_1_2 0
y_14_1_3 1
y_14_1_4 0
y_14_1_5 0
y_15_0_0 0
y_15_0_1 9.9999999999999967e-01
y_15_0_2 0
y_15_0_3 0
y_15_0_4 1
y_15_0_5 0
y_15_1_0 0
y_15_1_1 0
y_15_1_2 0
y_15_1_3 0
y_15_1_4 0
y_15_1_5 0
x_0_1_0_0 0
x_0_1_0_1 1.0000000000000004e+00
x_0_1_0_2 0
x_0_1_0_3 0
x_0_1_0_4 1
x_0_1_0_5 0
x_0_1_1_0 0
x_0_1_1_1 0
x_0_1_1_2 0
x_0_1_1_3 1
x_0_1_1_4 0
x_0_1_1_5 0
x_0_2_0_0 0
x_0_2_0_1 0
x_0_2_0_2 0
x_0_2_0_3 0
x_0_2_0_4 0
x_0_2_0_5 0
x_0_2_1_0 0
x_0_2_1_1 0
x_0_2_1_2 0
x_0_2_1_3 0
x_0_2_1_4 0
x_0_2_1_5 0
x_0_3_0_0 0
x_0_3_0_1 0
x_0_3_0_2 0
x_0_3_0_3 0
x_0_3_0_4 0
x_0_3_0_5 0
x_0_3_1_0 0
x_0_3_1_1 0
x_0_3_1_2 0
x_0_3_1_3 0
x_0_3_1_4 0
x_0_3_1_5 0
x_0_4_0_0 0
x_0_4_0_1 0
x_0_4_0_2 0
x_0_4_0_3 0
x_0_4_0_4 0
x_0_4_0_5 0
x_0_4_1_0 0
x_0_4_1_1 1
x_0_4_1_2 0
x_0_4_1_3 0
x_0_4_1_4 0
x_0_4_1_5 0
x_0_5_0_0 0
x_0_5_0_1 0
x_0_5_0_2 1.0000000000002767e+00
x_0_5_0_3 9.9999999999995914e-01
x_0_5_0_4 0
x_0_5_0_5 0
x_0_5_1_0 0
x_0_5_1_1 0
x_0_5_1_2 -1.2013302506935430e-13
x_0_5_1_3 0
x_0_5_1_4 0
x_0_5_1_5 0
x_0_6_0_0 0
x_0_6_0_1 0
x_0_6_0_2 0
x_0_6_0_3 0
x_0_6_0_4 0
x_0_6_0_5 0
x_0_6_1_0 0
x_0_6_1_1 0
x_0_6_1_2 0
x_0_6_1_3 0
x_0_6_1_4 0
x_0_6_1_5 0
x_0_7_0_0 2
x_0_7_0_1 0
x_0_7_0_2 9.9999999999972333e-01
x_0_7_0_3 0
x_0_7_0_4 0
x_0_7_0_5 0
x_0_7_1_0 0
x_0_7_1_1 0
x_0_7_1_2 2.2428910566145992e-13
x_0_7_1_3 0
x_0_7_1_4 2
x_0_7_1_5 0
x_0_8_0_0 0
x_0_8_0_1 0
x_0_8_0_2 0
x_0_8_0_3 0
x_0_8_0_4 1
x_0_8_0_5 0
x_0_8_1_0 0
x_0_8_1_1 1
x_0_8_1_2 0
x_0_8_1_3 0
x_0_8_1_4 0
x_0_8_1_5 0
x_0_9_0_0 0
x_0_9_0_1 1
x_0_9_0_2 0
x_0_9_0_3 1
x_0_9_0_4 0
x_0_9_0_5 0
x_0_9_1_0 0
x_0_9_1_1 0
x_0_9_1_2 0
x_0_9_1_3 0
x_0_9_1_4 0
x_0_9_1_5 0
x_0_10_0_0 0
x_0_10_0_1 0
x_0_10_0_2 0
x_0_10_0_3 0
x_0_10_0_4 0
x_0_10_0_5 0
x_0_10_1_0 0
x_0_10_1_1 0
x_0_10_1_2 0
x_0_10_1_3 0
x_0_10_1_4 0
x_0_10_1_5 0
x_0_11_0_0 0
x_0_11_0_1 0
x_0_11_0_2 0
x_0_11_0_3 0
x_0_11_0_4 0
x_0_11_0_5 0
x_0_11_1_0 0
x_0_11_1_1 0
x_0_11_1_2 0
x_0_11_1_3 0
x_0_11_1_4 0
x_0_11_1_5 0
x_0_12_0_0 0
x_0_12_0_1 0
x_0_12_0_2 0
x_0_12_0_3 0
x_0_12_0_4 0
x_0_12_0_5 0
x_0_12_1_0 0
x_0_12_1_1 0
x_0_12_1_2 0
x_0_12_1_3 0
x_0_12_1_4 0
x_0_12_1_5 0
x_0_13_0_0 0
x_0_13_0_1 0
x_0_13_0_2 0
x_0_13_0_3 0
x_0_13_0_4 0
x_0_13_0_5 0
x_0_13_1_0 0
x_0_13_1_1 0
x_0_13_1_2 0
x_0_13_1_3 1
x_0_13_1_4 0
x_0_13_1_5 0
x_0_14_0_0 0
x_0_14_0_1 0
x_0_14_0_2 0
x_0_14_0_3 0
x_0_14_0_4 0
x_0_14_0_5 0
x_0_14_1_0 0
x_0_14_1_1 0
x_0_14_1_2 0
x_0_14_1_3 0
x_0_14_1_4 0
x_0_14_1_5 0
x_0_15_0_0 0
x_0_15_0_1 0
x_0_15_0_2 0
x_0_15_0_3 0
x_0_15_0_4 0
x_0_15_0_5 0
x_0_15_1_0 0
x_0_15_1_1 0
x_0_15_1_2 0
x_0_15_1_3 0
x_0_15_1_4 0
x_0_15_1_5 0
x_1_2_0_0 0
x_1_2_0_1 0
x_1_2_0_2 -1.7211267788523939e-13
x_1_2_0_3 0
x_1_2_0_4 0
x_1_2_0_5 0
x_1_2_1_0 0
x_1_2_1_1 0
x_1_2_1_2 0
x_1_2_1_3 0
x_1_2_1_4 0
x_1_2_1_5 0
x_1_3_0_0 0
x_1_3_0_1 0
x_1_3_0_2 0
x_1_3_0_3 0
x_1_3_0_4 0
x_1_3_0_5 0
x_1_3_1_0 0
x_1_3_1_1 0
x_1_3_1_2 0
x_1_3_1_3 0
x_1_3_1_4 0
x_1_3_1_5 0
x_1_4_0_0 0
x_1_4_0_1 0
x_1_4_0_2 0
x_1_4_0_3 0
x_1_4_0_4 9.9999999999999967e-01
x_1_4_0_5 0
x_1_4_1_0 0
x_1_4_1_1 0
x_1_4_1_2 0
x_1_4_1_3 9.9999999999999967e-01
x_1_4_1_4 0
x_1_4_1_5 0
x_1_5_0_0 0
x_1_5_0_1 0
x_1_5_0_2 0
x_1_5_0_3 0
x_1_5_0_4 0
x_1_5_0_5 0
x_1_5_1_0 0
x_1_5_1_1 0
x_1_5_1_2 0
x_1_5_1_3 0
x_1_5_1_4 0
x_1_5_1_5 0
x_1_6_0_0 0
x_1_6_0_1 0
x_1_6_0_2 0
x_1_6_0_3 0
x_1_6_0_4 0
x_1_6_0_5 0
x_1_6_1_0 0
x_1_6_1_1 0
x_1_6_1_2 0
x_1_6_1_3 0
x_1_6_1_4 0
x_1_6_1_5 0
x_1_7_0_0 0
x_1_7_0_1 0
x_1_7_0_2 0
x_1_7_0_3 0
x_1_7_0_4 0
x_1_7_0_5 0
x_1_7_1_0 0
x_1_7_1_1 0
x_1_7_1_2 0
x_1_7_1_3 0
x_1_7_1_4 0
x_1_7_1_5 0
x_1_8_0_0 0
x_1_8_0_1 0
x_1_8_0_2 0
x_1_8_0_3 0
x_1_8_0_4 0
x_1_8_0_5 0
x_1_8_1_0 0
x_1_8_1_1 0
x_1_8_1_2 0
x_1_8_1_3 0
x_1_8_1_4 0
x_1_8_1_5 0
x_1_9_0_0 0
x_1_9_0_1 0
x_1_9_0_2 0
x_1_9_0_3 0
x_1_9_0_4 0
x_1_9_0_5 0
x_1_9_1_0 0
x_1_9_1_1 0
x_1_9_1_2 0
x_1_9_1_3 0
x_1_9_1_4 0
x_1_9_1_5 0
x_1_10_0_0 0
x_1_10_0_1 0
x_1_10_0_2 0
x_1_10_0_3 0
x_1_10_0_4 0
x_1_10_0_5 0
x_1_10_1_0 0
x_1_10_1_1 0
x_1_10_1_2 0
x_1_10_1_3 0
x_1_10_1_4 0
x_1_10_1_5 0
x_1_11_0_0 0
x_1_11_0_1 0
x_1_11_0_2 0
x_1_11_0_3 0
x_1_11_0_4 0
x_1_11_0_5 0
x_1_11_1_0 0
x_1_11_1_1 0
x_1_11_1_2 0
x_1_11_1_3 0
x_1_11_1_4 0
x_1_11_1_5 0
x_1_12_0_0 0
x_1_12_0_1 0
x_1_12_0_2 0
x_1_12_0_3 0
x_1_12_0_4 0
x_1_12_0_5 0
x_1_12_1_0 0
x_1_12_1_1 0
x_1_12_1_2 0
x_1_12_1_3 0
x_1_12_1_4 0
x_1_12_1_5 0
x_1_13_0_0 0
x_1_13_0_1 0
x_1_13_0_2 0
x_1_13_0_3 0
x_1_13_0_4 0
x_1_13_0_5 0
x_1_13_1_0 0
x_1_13_1_1 0
x_1_13_1_2 0
x_1_13_1_3 0
x_1_13_1_4 0
x_1_13_1_5 0
x_1_14_0_0 0
x_1_14_0_1 1
x_1_14_0_2 1.7211267788523939e-13
x_1_14_0_3 0
x_1_14_0_4 0
x_1_14_0_5 0
x_1_14_1_0 0
x_1_14_1_1 0
x_1_14_1_2 0
x_1_14_1_3 0
x_1_14_1_4 0
x_1_14_1_5 0
x_1_15_0_0 0
x_1_15_0_1 0
x_1_15_0_2 0
x_1_15_0_3 0
x_1_15_0_4 0
x_1_15_0_5 0
x_1_15_1_0 0
x_1_15_1_1 0
x_1_15_1_2 0
x_1_15_1_3 0
x_1_15_1_4 0
x_1_15_1_5 0
x_2_3_0_0 0
x_2_3_0_1 0
x_2_3_0_2 0
x_2_3_0_3 1
x_2_3_0_4 0
x_2_3_0_5 0
x_2_3_1_0 0
x_2_3_1_1 1
x_2_3_1_2 0
x_2_3_1_3 0
x_2_3_1_4 0
x_2_3_1_5 0
x_2_4_0_0 0
x_2_4_0_1 0
x_2_4_0_2 0
x_2_4_0_3 0
x_2_4_0_4 0
x_2_4_0_5 0
x_2_4_1_0 0
x_2_4_1_1 1
x_2_4_1_2 0
x_2_4_1_3 0
x_2_4_1_4 0
x_2_4_1_5 0
x_2_5_0_0 0
x_2_5_0_1 0
x_2_5_0_2 0
x_2_5_0_3 0
x_2_5_0_4 0
x_2_5_0_5 0
x_2_5_1_0 0
x_2_5_1_1 0
x_2_5_1_2 0
x_2_5_1_3 0
x_2_5_1_4 0
x_2_5_1_5 0
x_2_6_0_0 0
x_2_6_0_1 0
x_2_6_0_2 0
x_2_6_0_3 0
x_2_6_0_4 0
x_2_6_0_5 0
x_2_6_1_0 0
x_2_6_1_1 0
x_2_6_1_2 0
x_2_6_1_3 0
x_2_6_1_4 0
x_2_6_1_5 0
x_2_7_0_0 0
x_2_7_0_1 0
x_2_7_0_2 0
x_2_7_0_3 0
x_2_7_0_4 0
x_2_7_0_5 0
x_2_7_1_0 0
x_2_7_1_1 0
x_2_7_1_2 0
x_2_7_1_3 0
x_2_7_1_4 0
x_2_7_1_5 0
x_2_8_0_0 0
x_2_8_0_1 0
x_2_8_0_2 0
x_2_8_0_3 0
x_2_8_0_4 0
x_2_8_0_5 0
x_2_8_1_0 0
x_2_8_1_1 0
x_2_8_1_2 0
x_2_8_1_3 0
x_2_8_1_4 0
x_2_8_1_5 0
x_2_9_0_0 0
x_2_9_0_1 0
x_2_9_0_2 0
x_2_9_0_3 0
x_2_9_0_4 0
x_2_9_0_5 0
x_2_9_1_0 0
x_2_9_1_1 0
x_2_9_1_2 0
x_2_9_1_3 0
x_2_9_1_4 0
x_2_9_1_5 0
x_2_10_0_0 0
x_2_10_0_1 0
x_2_10_0_2 0
x_2_10_0_3 0
x_2_10_0_4 0
x_2_10_0_5 0
x_2_10_1_0 0
x_2_10_1_1 0
x_2_10_1_2 0
x_2_10_1_3 0
x_2_10_1_4 0
x_2_10_1_5 0
x_2_11_0_0 0
x_2_11_0_1 0
x_2_11_0_2 1.7211267788523939e-13
x_2_11_0_3 1
x_2_11_0_4 0
x_2_11_0_5 0
x_2_11_1_0 0
x_2_11_1_1 0
x_2_11_1_2 0
x_2_11_1_3 0
x_2_11_1_4 0
x_2_11_1_5 0
x_2_12_0_0 0
x_2_12_0_1 0
x_2_12_0_2 0
x_2_12_0_3 0
x_2_12_0_4 0
x_2_12_0_5 0
x_2_12_1_0 0
x_2_12_1_1 0
x_2_12_1_2 0
x_2_12_1_3 0
x_2_12_1_4 0
x_2_12_1_5 0
x_2_13_0_0 0
x_2_13_0_1 0
x_2_13_0_2 0
x_2_13_0_3 0
x_2_13_0_4 0
x_2_13_0_5 0
x_2_13_1_0 0
x_2_13_1_1 0
x_2_13_1_2 0
x_2_13_1_3 0
x_2_13_1_4 0
x_2_13_1_5 0
x_2_14_0_0 0
x_2_14_0_1 0
x_2_14_0_2 0
x_2_14_0_3 0
x_2_14_0_4 0
x_2_14_0_5 0
x_2_14_1_0 0
x_2_14_1_1 0
x_2_14_1_2 0
x_2_14_1_3 0
x_2_14_1_4 0
x_2_14_1_5 0
x_2_15_0_0 0
x_2_15_0_1 0
x_2_15_0_2 0
x_2_15_0_3 0
x_2_15_0_4 0
x_2_15_0_5 0
x_2_15_1_0 0
x_2_15_1_1 0
x_2_15_1_2 0
x_2_15_1_3 0
x_2_15_1_4 0
x_2_15_1_5 0
x_3_4_0_0 0
x_3_4_0_1 0
x_3_4_0_2 0
x_3_4_0_3 0
x_3_4_0_4 0
x_3_4_0_5 0
x_3_4_1_0 0
x_3_4_1_1 0
x_3_4_1_2 0
x_3_4_1_3 0
x_3_4_1_4 0
x_3_4_1_5 0
x_3_5_0_0 0
x_3_5_0_1 0
x_3_5_0_2 0
x_3_5_0_3 0
x_3_5_0_4 0
x_3_5_0_5 0
x_3_5_1_0 0
x_3_5_1_1 0
x_3_5_1_2 0
x_3_5_1_3 0
x_3_5_1_4 0
x_3_5_1_5 0
x_3_6_0_0 0
x_3_6_0_1 0
x_3_6_0_2 0
x_3_6_0_3 0
x_3_6_0_4 0
x_3_6_0_5 0
x_3_6_1_0 0
x_3_6_1_1 0
x_3_6_1_2 0
x_3_6_1_3 0
x_3_6_1_4 0
x_3_6_1_5 0
x_3_7_0_0 0
x_3_7_0_1 0
x_3_7_0_2 0
x_3_7_0_3 0
x_3_7_0_4 0
x_3_7_0_5 0
x_3_7_1_0 0
x_3_7_1_1 0
x_3_7_1_2 0
x_3_7_1_3 0
x_3_7_1_4 0
x_3_7_1_5 0
x_3_8_0_0 0
x_3_8_0_1 0
x_3_8_0_2 0
x_3_8_0_3 1
x_3_8_0_4 0
x_3_8_0_5 0
x_3_8_1_0 0
x_3_8_1_1 1
x_3_8_1_2 0
x_3_8_1_3 0
x_3_8_1_4 0
x_3_8_1_5 0
x_3_9_0_0 0
x_3_9_0_1 0
x_3_9_0_2 0
x_3_9_0_3 0
x_3_9_0_4 0
x_3_9_0_5 0
x_3_9_1_0 0
x_3_9_1_1 0
x_3_9_1_2 0
x_3_9_1_3 0
x_3_9_1_4 0
x_3_9_1_5 0
x_3_10_0_0 0
x_3_10_0_1 0
x_3_10_0_2 0
x_3_10_0_3 0
x_3_10_0_4 0
x_3_10_0_5 0
x_3_10_1_0 0
x_3_10_1_1 0
x_3_10_1_2 0
x_3_10_1_3 0
x_3_10_1_4 0
x_3_10_1_5 0
x_3_11_0_0 0
x_3_11_0_1 0
x_3_11_0_2 0
x_3_11_0_3 0
x_3_11_0_4 0
x_3_11_0_5 0
x_3_11_1_0 0
x_3_11_1_1 0
x_3_11_1_2 0
x_3_11_1_3 0
x_3_11_1_4 0
x_3_11_1_5 0
x_3_12_0_0 0
x_3_12_0_1 0
x_3_12_0_2 0
x_3_12_0_3 0
x_3_12_0_4 0
x_3_12_0_5 0
x_3_12_1_0 0
x_3_12_1_1 0
x_3_12_1_2 0
x_3_12_1_3 0
x_3_12_1_4 0
x_3_12_1_5 0
x_3_13_0_0 0
x_3_13_0_1 0
x_3_13_0_2 0
x_3_13_0_3 0
x_3_13_0_4 0
x_3_13_0_5 0
x_3_13_1_0 0
x_3_13_1_1 0
x_3_13_1_2 0
x_3_13_1_3 0
x_3_13_1_4 0
x_3_13_1_5 0
x_3_14_0_0 0
x_3_14_0_1 0
x_3_14_0_2 0
x_3_14_0_3 0
x_3_14_0_4 0
x_3_14_0_5 0
x_3_14_1_0 0
x_3_14_1_1 0
x_3_14_1_2 0
x_3_14_1_3 0
x_3_14_1_4 0
x_3_14_1_5 0
x_3_15_0_0 0
x_3_15_0_1 0
x_3_15_0_2 0
x_3_15_0_3 0
x_3_15_0_4 0
x_3_15_0_5 0
x_3_15_1_0 0
x_3_15_1_1 0
x_3_15_1_2 0
x_3_15_1_3 0
x_3_15_1_4 0
x_3_15_1_5 0
x_4_5_0_0 0
x_4_5_0_1 0
x_4_5_0_2 0
x_4_5_0_3 0
x_4_5_0_4 0
x_4_5_0_5 0
x_4_5_1_0 0
x_4_5_1_1 0
x_4_5_1_2 0
x_4_5_1_3 0
x_4_5_1_4 0
x_4_5_1_5 0
x_4_6_0_0 0
x_4_6_0_1 0
x_4_6_0_2 0
x_4_6_0_3 0
x_4_6_0_4 0
x_4_6_0_5 0
x_4_6_1_0 0
x_4_6_1_1 0
x_4_6_1_2 0
x_4_6_1_3 0
x_4_6_1_4 0
x_4_6_1_5 0
x_4_7_0_0 0
x_4_7_0_1 0
x_4_7_0_2 0
x_4_7_0_3 0
x_4_7_0_4 0
x_4_7_0_5 0
x_4_7_1_0 0
x_4_7_1_1 0
x_4_7_1_2 0
x_4_7_1_3 0
x_4_7_1_4 0
x_4_7_1_5 0
x_4_8_0_0 0
x_4_8_0_1 0
x_4_8_0_2 0
x_4_8_0_3 0
x_4_8_0_4 0
x_4_8_0_5 0
x_4_8_1_0 0
x_4_8_1_1 0
x_4_8_1_2 0
x_4_8_1_3 0
x_4_8_1_4 0
x_4_8_1_5 0
x_4_9_0_0 0
x_4_9_0_1 0
x_4_9_0_2 0
x_4_9_0_3 0
x_4_9_0_4 0
x_4_9_0_5 0
x_4_9_1_0 0
x_4_9_1_1 0
x_4_9_1_2 0
x_4_9_1_3 0
x_4_9_1_4 0
x_4_9_1_5 0
x_4_10_0_0 0
x_4_10_0_1 0
x_4_10_0_2 0
x_4_10_0_3 0
x_4_10_0_4 0
x_4_10_0_5 0
x_4_10_1_0 0
x_4_10_1_1 0
x_4_10_1_2 0
x_4_10_1_3 0
x_4_10_1_4 0
x_4_10_1_5 0
x_4_11_0_0 0
x_4_11_0_1 0
x_4_11_0_2 0
x_4_11_0_3 0
x_4_11_0_4 0
x_4_11_0_5 0
x_4_11_1_0 0
x_4_11_1_1 0
x_4_11_1_2 0
x_4_11_1_3 0
x_4_11_1_4 0
x_4_11_1_5 0
x_4_12_0_0 0
x_4_12_0_1 0
x_4_12_0_2 0
x_4_12_0_3 0
x_4_12_0_4 0
x_4_12_0_5 0
x_4_12_1_0 0
x_4_12_1_1 0
x_4_12_1_2 0
x_4_12_1_3 0
x_4_12_1_4 0
x_4_12_1_5 0
x_4_13_0_0 0
x_4_13_0_1 0
x_4_13_0_2 0
x_4_13_0_3 0
x_4_13_0_4 0
x_4_13_0_5 0
x_4_13_1_0 0
x_4_13_1_1 0
x_4_13_1_2 0
x_4_13_1_3 0
x_4_13_1_4 0
x_4_13_1_5 0
x_4_14_0_0 0
x_4_14_0_1 0
x_4_14_0_2 0
x_4_14_0_3 0
x_4_14_0_4 1
x_4_14_0_5 0
x_4_14_1_0 0
x_4_14_1_1 0
x_4_14_1_2 0
x_4_14_1_3 1
x_4_14_1_4 0
x_4_14_1_5 0
x_4_15_0_0 0
x_4_15_0_1 0
x_4_15_0_2 0
x_4_15_0_3 0
x_4_15_0_4 0
x_4_15_0_5 0
x_4_15_1_0 0
x_4_15_1_1 0
x_4_15_1_2 0
x_4_15_1_3 0
x_4_15_1_4 0
x_4_15_1_5 0
x_5_6_0_0 0
x_5_6_0_1 0
x_5_6_0_2 0
x_5_6_0_3 0
x_5_6_0_4 0
x_5_6_0_5 0
x_5_6_1_0 0
x_5_6_1_1 0
x_5_6_1_2 0
x_5_6_1_3 0
x_5_6_1_4 0
x_5_6_1_5 0
x_5_7_0_0 0
x_5_7_0_1 0
x_5_7_0_2 0
x_5_7_0_3 0
x_5_7_0_4 0
x_5_7_0_5 0
x_5_7_1_0 0
x_5_7_1_1 0
x_5_7_1_2 0
x_5_7_1_3 0
x_5_7_1_4 0
x_5_7_1_5 0
x_5_8_0_0 0
x_5_8_0_1 0
x_5_8_0_2 0
x_5_8_0_3 0
x_5_8_0_4 0
x_5_8_0_5 0
x_5_8_1_0 0
x_5_8_1_1 0
x_5_8_1_2 0
x_5_8_1_3 0
x_5_8_1_4 0
x_5_8_1_5 0
x_5_9_0_0 0
x_5_9_0_1 0
x_5_9_0_2 0
x_5_9_0_3 0
x_5_9_0_4 0
x_5_9_0_5 0
x_5_9_1_0 0
x_5_9_1_1 0
x_5_9_1_2 0
x_5_9_1_3 0
x_5_9_1_4 0
x_5_9_1_5 0
x_5_10_0_0 0
x_5_10_0_1 0
x_5_10_0_2 0
x_5_10_0_3 0
x_5_10_0_4 0
x_5_10_0_5 0
x_5_10_1_0 0
x_5_10_1_1 0
x_5_10_1_2 0
x_5_10_1_3 0
x_5_10_1_4 0
x_5_10_1_5 0
x_5_11_0_0 0
x_5_11_0_1 0
x_5_11_0_2 1
x_5_11_0_3 9.9999999999995914e-01
x_5_11_0_4 0
x_5_11_0_5 0
x_5_11_1_0 0
x_5_11_1_1 0
x_5_11_1_2 -2.2428910566145994e-13
x_5_11_1_3 0
x_5_11_1_4 0
x_5_11_1_5 0
x_5_12_0_0 0
x_5_12_0_1 0
x_5_12_0_2 0
x_5_12_0_3 0
x_5_12_0_4 0
x_5_12_0_5 0
x_5_12_1_0 0
x_5_12_1_1 0
x_5_12_1_2 0
x_5_12_1_3 0
x_5_12_1_4 0
x_5_12_1_5 0
x_5_13_0_0 0
x_5_13_0_1 0
x_5_13_0_2 0
x_5_13_0_3 0
x_5_13_0_4 0
x_5_13_0_5 0
x_5_13_1_0 0
x_5_13_1_1 0
x_5_13_1_2 0
x_5_13_1_3 0
x_5_13_1_4 0
x_5_13_1_5 0
x_5_14_0_0 0
x_5_14_0_1 0
x_5_14_0_2 0
x_5_14_0_3 0
x_5_14_0_4 0
x_5_14_0_5 0
x_5_14_1_0 0
x_5_14_1_1 0
x_5_14_1_2 0
x_5_14_1_3 0
x_5_14_1_4 0
x_5_14_1_5 0
x_5_15_0_0 0
x_5_15_0_1 0
x_5_15_0_2 0
x_5_15_0_3 0
x_5_15_0_4 0
x_5_15_0_5 0
x_5_15_1_0 0
x_5_15_1_1 0
x_5_15_1_2 0
x_5_15_1_3 0
x_5_15_1_4 0
x_5_15_1_5 0
x_6_7_0_0 0
x_6_7_0_1 0
x_6_7_0_2 0
x_6_7_0_3 0
x_6_7_0_4 0
x_6_7_0_5 0
x_6_7_1_0 0
x_6_7_1_1 0
x_6_7_1_2 0
x_6_7_1_3 0
x_6_7_1_4 0
x_6_7_1_5 0
x_6_8_0_0 0
x_6_8_0_1 0
x_6_8_0_2 0
x_6_8_0_3 0
x_6_8_0_4 0
x_6_8_0_5 0
x_6_8_1_0 0
x_6_8_1_1 0
x_6_8_1_2 0
x_6_8_1_3 0
x_6_8_1_4 0
x_6_8_1_5 0
x_6_9_0_0 0
x_6_9_0_1 1
x_6_9_0_2 0
x_6_9_0_3 0
x_6_9_0_4 1
x_6_9_0_5 0
x_6_9_1_0 0
x_6_9_1_1 0
x_6_9_1_2 0
x_6_9_1_3 0
x_6_9_1_4 0
x_6_9_1_5 0
x_6_10_0_0 0
x_6_10_0_1 0
x_6_10_0_2 0
x_6_10_0_3 0
x_6_10_0_4 0
x_6_10_0_5 0
x_6_10_1_0 0
x_6_10_1_1 0
x_6_10_1_2 0
x_6_10_1_3 0
x_6_10_1_4 0
x_6_10_1_5 0
x_6_11_0_0 0
x_6_11_0_1 0
x_6_11_0_2 0
x_6_11_0_3 0
x_6_11_0_4 0
x_6_11_0_5 0
x_6_11_1_0 0
x_6_11_1_1 0
x_6_11_1_2 0
x_6_11_1_3 0
x_6_11_1_4 0
x_6_11_1_5 0
x_6_12_0_0 0
x_6_12_0_1 0
x_6_12_0_2 0
x_6_12_0_3 0
x_6_12_0_4 0
x_6_12_0_5 0
x_6_12_1_0 0
x_6_12_1_1 0
x_6_12_1_2 0
x_6_12_1_3 0
x_6_12_1_4 0
x_6_12_1_5 0
x_6_13_0_0 0
x_6_13_0_1 0
x_6_13_0_2 0
x_6_13_0_3 0
x_6_13_0_4 0
x_6_13_0_5 0
x_6_13_1_0 0
x_6_13_1_1 0
x_6_13_1_2 0
x_6_13_1_3 0
x_6_13_1_4 0
x_6_13_1_5 0
x_6_14_0_0 0
x_6_14_0_1 0
x_6_14_0_2 0
x_6_14_0_3 0
x_6_14_0_4 0
x_6_14_0_5 0
x_6_14_1_0 0
x_6_14_1_1 0
x_6_14_1_2 0
x_6_14_1_3 0
x_6_14_1_4 0
x_6_14_1_5 0
x_6_15_0_0 0
x_6_15_0_1 9.9999999999999967e-01
x_6_15_0_2 0
x_6_15_0_3 0
x_6_15_0_4 1
x_6_15_0_5 0
x_6_15_1_0 0
x_6_15_1_1 0
x_6_15_1_2 0
x_6_15_1_3 0
x_6_15_1_4 0
x_6_15_1_5 0
x_7_8_0_0 0
x_7_8_0_1 0
x_7_8_0_2 0
x_7_8_0_3 0
x_7_8_0_4 0
x_7_8_0_5 0
x_7_8_1_0 0
x_7_8_1_1 0
x_7_8_1_2 0
x_7_8_1_3 0
x_7_8_1_4 0
x_7_8_1_5 0
x_7_9_0_0 0
x_7_9_0_1 0
x_7_9_0_2 0
x_7_9_0_3 0
x_7_9_0_4 0
x_7_9_0_5 0
x_7_9_1_0 0
x_7_9_1_1 0
x_7_9_1_2 0
x_7_9_1_3 0
x_7_9_1_4 0
x_7_9_1_5 0
x_7_10_0_0 0
x_7_10_0_1 0
x_7_10_0_2 0
x_7_10_0_3 0
x_7_10_0_4 0
x_7_10_0_5 0
x_7_10_1_0 0
x_7_10_1_1 0
x_7_10_1_2 0
x_7_10_1_3 0
x_7_10_1_4 0
x_7_10_1_5 0
x_7_11_0_0 0
x_7_11_0_1 0
x_7_11_0_2 1.0000000000001721e+00
x_7_11_0_3 0
x_7_11_0_4 0
x_7_11_0_5 0
x_7_11_1_0 0
x_7_11_1_1 0
x_7_11_1_2 -1.2013302506935425e-13
x_7_11_1_3 0
x_7_11_1_4 0
x_7_11_1_5 0
x_7_12_0_0 0
x_7_12_0_1 0
x_7_12_0_2 0
x_7_12_0_3 0
x_7_12_0_4 0
x_7_12_0_5 0
x_7_12_1_0 0
x_7_12_1_1 0
x_7_12_1_2 0
x_7_12_1_3 0
x_7_12_1_4 0
x_7_12_1_5 0
x_7_13_0_0 0
x_7_13_0_1 0
x_7_13_0_2 0
x_7_13_0_3 0
x_7_13_0_4 0
x_7_13_0_5 0
x_7_13_1_0 0
x_7_13_1_1 0
x_7_13_1_2 0
x_7_13_1_3 0
x_7_13_1_4 0
x_7_13_1_5 0
x_7_14_0_0 0
x_7_14_0_1 0
x_7_14_0_2 0
x_7_14_0_3 0
x_7_14_0_4 0
x_7_14_0_5 0
x_7_14_1_0 0
x_7_14_1_1 0
x_7_14_1_2 0
x_7_14_1_3 0
x_7_14_1_4 0
x_7_14_1_5 0
x_7_15_0_0 0
x_7_15_0_1 0
x_7_15_0_2 0
x_7_15_0_3 0
x_7_15_0_4 0
x_7_15_0_5 0
x_7_15_1_0 0
x_7_15_1_1 0
x_7_15_1_2 0
x_7_15_1_3 0
x_7_15_1_4 0
x_7_15_1_5 0
x_8_9_0_0 0
x_8_9_0_1 0
x_8_9_0_2 0
x_8_9_0_3 1
x_8_9_0_4 1
x_8_9_0_5 0
x_8_9_1_0 0
x_8_9_1_1 0
x_8_9_1_2 0
x_8_9_1_3 0
x_8_9_1_4 0
x_8_9_1_5 0
x_8_10_0_0 0
x_8_10_0_1 0
x_8_10_0_2 0
x_8_10_0_3 0
x_8_10_0_4 0
x_8_10_0_5 0
x_8_10_1_0 0
x_8_10_1_1 0
x_8_10_1_2 0
x_8_10_1_3 0
x_8_10_1_4 0
x_8_10_1_5 0
x_8_11_0_0 0
x_8_11_0_1 0
x_8_11_0_2 0
x_8_11_0_3 0
x_8_11_0_4 0
x_8_11_0_5 0
x_8_11_1_0 0
x_8_11_1_1 0
x_8_11_1_2 0
x_8_11_1_3 0
x_8_11_1_4 0
x_8_11_1_5 0
x_8_12_0_0 0
x_8_12_0_1 0
x_8_12_0_2 0
x_8_12_0_3 0
x_8_12_0_4 0
x_8_12_0_5 0
x_8_12_1_0 0
x_8_12_1_1 0
x_8_12_1_2 0
x_8_12_1_3 0
x_8_12_1_4 0
x_8_12_1_5 0
x_8_13_0_0 0
x_8_13_0_1 0
x_8_13_0_2 0
x_8_13_0_3 0
x_8_13_0_4 0
x_8_13_0_5 0
x_8_13_1_0 0
x_8_13_1_1 0
x_8_13_1_2 0
x_8_13_1_3 0
x_8_13_1_4 0
x_8_13_1_5 0
x_8_14_0_0 0
x_8_14_0_1 0
x_8_14_0_2 0
x_8_14_0_3 0
x_8_14_0_4 0
x_8_14_0_5 0
x_8_14_1_0 0
x_8_14_1_1 0
x_8_14_1_2 0
x_8_14_1_3 0
x_8_14_1_4 0
x_8_14_1_5 0
x_8_15_0_0 0
x_8_15_0_1 0
x_8_15_0_2 0
x_8_15_0_3 0
x_8_15_0_4 0
x_8_15_0_5 0
x_8_15_1_0 0
x_8_15_1_1 0
x_8_15_1_2 0
x_8_15_1_3 0
x_8_15_1_4 0
x_8_15_1_5 0
x_9_10_0_0 0
x_9_10_0_1 0
x_9_10_0_2 0
x_9_10_0_3 0
x_9_10_0_4 0
x_9_10_0_5 0
x_9_10_1_0 0
x_9_10_1_1 0
x_9_10_1_2 0
x_9_10_1_3 0
x_9_10_1_4 0
x_9_10_1_5 0
x_9_11_0_0 0
x_9_11_0_1 0
x_9_11_0_2 0
x_9_11_0_3 0
x_9_11_0_4 0
x_9_11_0_5 0
x_9_11_1_0 0
x_9_11_1_1 0
x_9_11_1_2 0
x_9_11_1_3 0
x_9_11_1_4 0
x_9_11_1_5 0
x_9_12_0_0 0
x_9_12_0_1 0
x_9_12_0_2 0
x_9_12_0_3 0
x_9_12_0_4 0
x_9_12_0_5 0
x_9_12_1_0 0
x_9_12_1_1 0
x_9_12_1_2 0
x_9_12_1_3 0
x_9_12_1_4 0
x_9_12_1_5 0
x_9_13_0_0 0
x_9_13_0_1 0
x_9_13_0_2 0
x_9_13_0_3 0
x_9_13_0_4 0
x_9_13_0_5 0
x_9_13_1_0 0
x_9_13_1_1 0
x_9_13_1_2 0
x_9_13_1_3 0
x_9_13_1_4 0
x_9_13_1_5 0
x_9_14_0_0 0
x_9_14_0_1 0
x_9_14_0_2 0
x_9_14_0_3 0
x_9_14_0_4 0
x_9_14_0_5 0
x_9_14_1_0 0
x_9_14_1_1 0
x_9_14_1_2 0
x_9_14_1_3 0
x_9_14_1_4 0
x_9_14_1_5 0
x_9_15_0_0 0
x_9_15_0_1 0
x_9_15_0_2 0
x_9_15_0_3 0
x_9_15_0_4 0
x_9_15_0_5 0
x_9_15_1_0 0
x_9_15_1_1 0
x_9_15_1_2 0
x_9_15_1_3 0
x_9_15_1_4 0
x_9_15_1_5 0
x_10_11_0_0 0
x_10_11_0_1 0
x_10_11_0_2 0
x_10_11_0_3 0
x_10_11_0_4 0
x_10_11_0_5 0
x_10_11_1_0 0
x_10_11_1_1 0
x_10_11_1_2 0
x_10_11_1_3 0
x_10_11_1_4 0
x_10_11_1_5 0
x_10_12_0_0 0
x_10_12_0_1 9.9999999999999956e-01
x_10_12_0_2 0
x_10_12_0_3 0
x_10_12_0_4 0
x_10_12_0_5 0
x_10_12_1_0 0
x_10_12_1_1 0
x_10_12_1_2 0
x_10_12_1_3 1
x_10_12_1_4 0
x_10_12_1_5 0
x_10_13_0_0 0
x_10_13_0_1 0
x_10_13_0_2 0
x_10_13_0_3 0
x_10_13_0_4 0
x_10_13_0_5 0
x_10_13_1_0 0
x_10_13_1_1 0
x_10_13_1_2 0
x_10_13_1_3 0
x_10_13_1_4 0
x_10_13_1_5 0
x_10_14_0_0 0
x_10_14_0_1 9.9999999999999956e-01
x_10_14_0_2 0
x_10_14_0_3 0
x_10_14_0_4 0
x_10_14_0_5 0
x_10_14_1_0 0
x_10_14_1_1 0
x_10_14_1_2 0
x_10_14_1_3 1
x_10_14_1_4 0
x_10_14_1_5 0
x_10_15_0_0 0
x_10_15_0_1 0
x_10_15_0_2 0
x_10_15_0_3 0
x_10_15_0_4 0
x_10_15_0_5 0
x_10_15_1_0 0
x_10_15_1_1 0
x_10_15_1_2 0
x_10_15_1_3 0
x_10_15_1_4 0
x_10_15_1_5 0
x_11_12_0_0 0
x_11_12_0_1 0
x_11_12_0_2 0
x_11_12_0_3 0
x_11_12_0_4 0
x_11_12_0_5 0
x_11_12_1_0 0
x_11_12_1_1 0
x_11_12_1_2 0
x_11_12_1_3 0
x_11_12_1_4 0
x_11_12_1_5 0
x_11_13_0_0 0
x_11_13_0_1 0
x_11_13_0_2 0
x_11_13_0_3 0
x_11_13_0_4 0
x_11_13_0_5 0
x_11_13_1_0 0
x_11_13_1_1 0
x_11_13_1_2 0
x_11_13_1_3 0
x_11_13_1_4 0
x_11_13_1_5 0
x_11_14_0_0 0
x_11_14_0_1 0
x_11_14_0_2 0
x_11_14_0_3 0
x_11_14_0_4 0
x_11_14_0_5 0
x_11_14_1_0 0
x_11_14_1_1 0
x_11_14_1_2 0
x_11_14_1_3 0
x_11_14_1_4 0
x_11_14_1_5 0
x_11_15_0_0 0
x_11_15_0_1 0
x_11_15_0_2 0
x_11_15_0_3 0
x_11_15_0_4 0
x_11_15_0_5 0
x_11_15_1_0 0
x_11_15_1_1 0
x_11_15_1_2 0
x_11_15_1_3 0
x_11_15_1_4 0
x_11_15_1_5 0
x_12_13_0_0 0
x_12_13_0_1 1
x_12_13_0_2 0
x_12_13_0_3 0
x_12_13_0_4 1
x_12_13_0_5 0
x_12_13_1_0 0
x_12_13_1_1 0
x_12_13_1_2 0
x_12_13_1_3 1
x_12_13_1_4 0
x_12_13_1_5 0
x_12_14_0_0 0
x_12_14_0_1 0
x_12_14_0_2 0
x_12_14_0_3 0
x_12_14_0_4 1
x_12_14_0_5 0
x_12_14_1_0 0
x_12_14_1_1 0
x_12_14_1_2 0
x_12_14_1_3 0
x_12_14_1_4 0
x_12_14_1_5 0
x_12_15_0_0 0
x_12_15_0_1 0
x_12_15_0_2 0
x_12_15_0_3 0
x_12_15_0_4 0
x_12_15_0_5 0
x_12_15_1_0 0
x_12_15_1_1 0
x_12_15_1_2 0
x_12_15_1_3 0
x_12_15_1_4 0
x_12_15_1_5 0
x_13_14_0_0 0
x_13_14_0_1 0
x_13_14_0_2 0
x_13_14_0_3 0
x_13_14_0_4 0
x_13_14_0_5 0
x_13_14_1_0 0
x_13_14_1_1 0
x_13_14_1_2 0
x_13_14_1_3 0
x_13_14_1_4 0
x_13_14_1_5 0
x_13_15_0_0 0
x_13_15_0_1 9.9999999999999967e-01
x_13_15_0_2 0
x_13_15_0_3 0
x_13_15_0_4 1
x_13_15_0_5 0
x_13_15_1_0 0
x_13_15_1_1 0
x_13_15_1_2 0
x_13_15_1_3 0
x_13_15_1_4 0
x_13_15_1_5 0
x_14_15_0_0 0
x_14_15_0_1 0
x_14_15_0_2 0
x_14_15_0_3 0
x_14_15_0_4 0
x_14_15_0_5 0
x_14_15_1_0 0
x_14_15_1_1 0
x_14_15_1_2 0
x_14_15_1_3 0
x_14_15_1_4 0
x_14_15_1_5 0
